NAME: test1996
TYPE: TSP
DIMENSION: 11
EDGE_WEIGHT_TYPE: EUC_2D
NODE_COORD_SECTION
1 43.69601725502733 47.50440636019846
2 25.189902686754017 65.58866292880028
3 9.579603527317248 72.19458614674889
4 29.007262527738142 13.038206399935193
5 5.711902087659881 42.785217109291885
6 10.817085562446692 63.35131107078826
7 32.79504653619559 71.41499843003176
8 41.6260675520301 37.5182168724859
9 38.489765695546694 22.734533597802486
10 59.55022032642976 19.382386645772385
11 21.650746521852927 87.27178999124199
EOF
